c cksystemsgroup.github.io/unicorn
c CNF contains a total of 732 clauses.
c CNF contains a total of 225 variables.
c CNF clauses cover 1 bad states.
c Variable name mapping (65 names):
c   2: input[bit=31]
c   5: input[bit=30]
c   8: input[bit=29]
c   11: input[bit=28]
c   14: input[bit=27]
c   17: input[bit=26]
c   20: input[bit=25]
c   23: input[bit=24]
c   26: input[bit=23]
c   29: input[bit=22]
c   32: input[bit=21]
c   35: input[bit=20]
c   38: input[bit=19]
c   41: input[bit=18]
c   44: input[bit=17]
c   47: input[bit=16]
c   50: input[bit=15]
c   53: input[bit=14]
c   56: input[bit=13]
c   59: input[bit=12]
c   62: input[bit=11]
c   65: input[bit=10]
c   68: input[bit=9]
c   71: input[bit=8]
c   74: input[bit=7]
c   77: input[bit=6]
c   80: input[bit=5]
c   83: input[bit=4]
c   86: input[bit=3]
c   89: input[bit=2]
c   92: input[bit=1]
c   95: input[bit=0]
c   129: input[bit=31]
c   131: input[bit=30]
c   133: input[bit=29]
c   135: input[bit=28]
c   137: input[bit=27]
c   139: input[bit=26]
c   141: input[bit=25]
c   143: input[bit=24]
c   145: input[bit=23]
c   147: input[bit=22]
c   149: input[bit=21]
c   151: input[bit=20]
c   153: input[bit=19]
c   155: input[bit=18]
c   157: input[bit=17]
c   159: input[bit=16]
c   161: input[bit=15]
c   163: input[bit=14]
c   165: input[bit=13]
c   167: input[bit=12]
c   169: input[bit=11]
c   171: input[bit=10]
c   173: input[bit=9]
c   175: input[bit=8]
c   177: input[bit=7]
c   179: input[bit=6]
c   181: input[bit=5]
c   183: input[bit=4]
c   185: input[bit=3]
c   187: input[bit=2]
c   189: input[bit=1]
c   191: input[bit=0]
c   225: ?
p cnf 225 732
-1 0
-2 -3 0
2 3 0
-4 0
-5 -6 0
5 6 0
-7 0
-8 -9 0
8 9 0
-10 0
-11 -12 0
11 12 0
-13 0
-14 -15 0
14 15 0
-16 0
-17 -18 0
17 18 0
-19 0
-20 -21 0
20 21 0
-22 0
-23 -24 0
23 24 0
-25 0
-26 -27 0
26 27 0
-28 0
-29 -30 0
29 30 0
-31 0
-32 -33 0
32 33 0
-34 0
-35 -36 0
35 36 0
-37 0
-38 -39 0
38 39 0
-40 0
-41 -42 0
41 42 0
-43 0
-44 -45 0
44 45 0
-46 0
-47 -48 0
47 48 0
-49 0
-50 -51 0
50 51 0
-52 0
-53 -54 0
53 54 0
-55 0
-56 -57 0
56 57 0
-58 0
-59 -60 0
59 60 0
-61 0
-62 -63 0
62 63 0
-64 0
-65 -66 0
65 66 0
-67 0
-68 -69 0
68 69 0
-70 0
-71 -72 0
71 72 0
-73 0
-74 -75 0
74 75 0
-76 0
-77 -78 0
77 78 0
-79 0
-80 -81 0
80 81 0
-82 0
-83 -84 0
83 84 0
-85 0
-86 -87 0
86 87 0
-88 0
-89 -90 0
89 90 0
-91 0
-92 -93 0
92 93 0
-94 0
-95 -96 0
95 96 0
93 94 -97 0
93 96 -97 0
-94 -96 97 0
94 96 -97 0
-93 -96 97 0
-93 -94 97 0
90 91 -98 0
90 97 -98 0
-91 -97 98 0
91 97 -98 0
-90 -97 98 0
-90 -91 98 0
87 88 -99 0
87 98 -99 0
-88 -98 99 0
88 98 -99 0
-87 -98 99 0
-87 -88 99 0
84 85 -100 0
84 99 -100 0
-85 -99 100 0
85 99 -100 0
-84 -99 100 0
-84 -85 100 0
81 82 -101 0
81 100 -101 0
-82 -100 101 0
82 100 -101 0
-81 -100 101 0
-81 -82 101 0
78 79 -102 0
78 101 -102 0
-79 -101 102 0
79 101 -102 0
-78 -101 102 0
-78 -79 102 0
75 76 -103 0
75 102 -103 0
-76 -102 103 0
76 102 -103 0
-75 -102 103 0
-75 -76 103 0
72 73 -104 0
72 103 -104 0
-73 -103 104 0
73 103 -104 0
-72 -103 104 0
-72 -73 104 0
69 70 -105 0
69 104 -105 0
-70 -104 105 0
70 104 -105 0
-69 -104 105 0
-69 -70 105 0
66 67 -106 0
66 105 -106 0
-67 -105 106 0
67 105 -106 0
-66 -105 106 0
-66 -67 106 0
63 64 -107 0
63 106 -107 0
-64 -106 107 0
64 106 -107 0
-63 -106 107 0
-63 -64 107 0
60 61 -108 0
60 107 -108 0
-61 -107 108 0
61 107 -108 0
-60 -107 108 0
-60 -61 108 0
57 58 -109 0
57 108 -109 0
-58 -108 109 0
58 108 -109 0
-57 -108 109 0
-57 -58 109 0
54 55 -110 0
54 109 -110 0
-55 -109 110 0
55 109 -110 0
-54 -109 110 0
-54 -55 110 0
51 52 -111 0
51 110 -111 0
-52 -110 111 0
52 110 -111 0
-51 -110 111 0
-51 -52 111 0
48 49 -112 0
48 111 -112 0
-49 -111 112 0
49 111 -112 0
-48 -111 112 0
-48 -49 112 0
45 46 -113 0
45 112 -113 0
-46 -112 113 0
46 112 -113 0
-45 -112 113 0
-45 -46 113 0
42 43 -114 0
42 113 -114 0
-43 -113 114 0
43 113 -114 0
-42 -113 114 0
-42 -43 114 0
39 40 -115 0
39 114 -115 0
-40 -114 115 0
40 114 -115 0
-39 -114 115 0
-39 -40 115 0
36 37 -116 0
36 115 -116 0
-37 -115 116 0
37 115 -116 0
-36 -115 116 0
-36 -37 116 0
33 34 -117 0
33 116 -117 0
-34 -116 117 0
34 116 -117 0
-33 -116 117 0
-33 -34 117 0
30 31 -118 0
30 117 -118 0
-31 -117 118 0
31 117 -118 0
-30 -117 118 0
-30 -31 118 0
27 28 -119 0
27 118 -119 0
-28 -118 119 0
28 118 -119 0
-27 -118 119 0
-27 -28 119 0
24 25 -120 0
24 119 -120 0
-25 -119 120 0
25 119 -120 0
-24 -119 120 0
-24 -25 120 0
21 22 -121 0
21 120 -121 0
-22 -120 121 0
22 120 -121 0
-21 -120 121 0
-21 -22 121 0
18 19 -122 0
18 121 -122 0
-19 -121 122 0
19 121 -122 0
-18 -121 122 0
-18 -19 122 0
15 16 -123 0
15 122 -123 0
-16 -122 123 0
16 122 -123 0
-15 -122 123 0
-15 -16 123 0
12 13 -124 0
12 123 -124 0
-13 -123 124 0
13 123 -124 0
-12 -123 124 0
-12 -13 124 0
9 10 -125 0
9 124 -125 0
-10 -124 125 0
10 124 -125 0
-9 -124 125 0
-9 -10 125 0
6 7 -126 0
6 125 -126 0
-7 -125 126 0
7 125 -126 0
-6 -125 126 0
-6 -7 126 0
3 4 -127 0
3 126 -127 0
-4 -126 127 0
4 126 -127 0
-3 -126 127 0
-3 -4 127 0
-127 -128 0
127 128 0
3 4 126 -130 0
3 4 -126 130 0
3 -4 126 130 0
3 -4 -126 -130 0
-3 4 126 130 0
-3 4 -126 -130 0
-3 -4 126 -130 0
-3 -4 -126 130 0
6 7 125 -132 0
6 7 -125 132 0
6 -7 125 132 0
6 -7 -125 -132 0
-6 7 125 132 0
-6 7 -125 -132 0
-6 -7 125 -132 0
-6 -7 -125 132 0
9 10 124 -134 0
9 10 -124 134 0
9 -10 124 134 0
9 -10 -124 -134 0
-9 10 124 134 0
-9 10 -124 -134 0
-9 -10 124 -134 0
-9 -10 -124 134 0
12 13 123 -136 0
12 13 -123 136 0
12 -13 123 136 0
12 -13 -123 -136 0
-12 13 123 136 0
-12 13 -123 -136 0
-12 -13 123 -136 0
-12 -13 -123 136 0
15 16 122 -138 0
15 16 -122 138 0
15 -16 122 138 0
15 -16 -122 -138 0
-15 16 122 138 0
-15 16 -122 -138 0
-15 -16 122 -138 0
-15 -16 -122 138 0
18 19 121 -140 0
18 19 -121 140 0
18 -19 121 140 0
18 -19 -121 -140 0
-18 19 121 140 0
-18 19 -121 -140 0
-18 -19 121 -140 0
-18 -19 -121 140 0
21 22 120 -142 0
21 22 -120 142 0
21 -22 120 142 0
21 -22 -120 -142 0
-21 22 120 142 0
-21 22 -120 -142 0
-21 -22 120 -142 0
-21 -22 -120 142 0
24 25 119 -144 0
24 25 -119 144 0
24 -25 119 144 0
24 -25 -119 -144 0
-24 25 119 144 0
-24 25 -119 -144 0
-24 -25 119 -144 0
-24 -25 -119 144 0
27 28 118 -146 0
27 28 -118 146 0
27 -28 118 146 0
27 -28 -118 -146 0
-27 28 118 146 0
-27 28 -118 -146 0
-27 -28 118 -146 0
-27 -28 -118 146 0
30 31 117 -148 0
30 31 -117 148 0
30 -31 117 148 0
30 -31 -117 -148 0
-30 31 117 148 0
-30 31 -117 -148 0
-30 -31 117 -148 0
-30 -31 -117 148 0
33 34 116 -150 0
33 34 -116 150 0
33 -34 116 150 0
33 -34 -116 -150 0
-33 34 116 150 0
-33 34 -116 -150 0
-33 -34 116 -150 0
-33 -34 -116 150 0
36 37 115 -152 0
36 37 -115 152 0
36 -37 115 152 0
36 -37 -115 -152 0
-36 37 115 152 0
-36 37 -115 -152 0
-36 -37 115 -152 0
-36 -37 -115 152 0
39 40 114 -154 0
39 40 -114 154 0
39 -40 114 154 0
39 -40 -114 -154 0
-39 40 114 154 0
-39 40 -114 -154 0
-39 -40 114 -154 0
-39 -40 -114 154 0
42 43 113 -156 0
42 43 -113 156 0
42 -43 113 156 0
42 -43 -113 -156 0
-42 43 113 156 0
-42 43 -113 -156 0
-42 -43 113 -156 0
-42 -43 -113 156 0
45 46 112 -158 0
45 46 -112 158 0
45 -46 112 158 0
45 -46 -112 -158 0
-45 46 112 158 0
-45 46 -112 -158 0
-45 -46 112 -158 0
-45 -46 -112 158 0
48 49 111 -160 0
48 49 -111 160 0
48 -49 111 160 0
48 -49 -111 -160 0
-48 49 111 160 0
-48 49 -111 -160 0
-48 -49 111 -160 0
-48 -49 -111 160 0
51 52 110 -162 0
51 52 -110 162 0
51 -52 110 162 0
51 -52 -110 -162 0
-51 52 110 162 0
-51 52 -110 -162 0
-51 -52 110 -162 0
-51 -52 -110 162 0
54 55 109 -164 0
54 55 -109 164 0
54 -55 109 164 0
54 -55 -109 -164 0
-54 55 109 164 0
-54 55 -109 -164 0
-54 -55 109 -164 0
-54 -55 -109 164 0
57 58 108 -166 0
57 58 -108 166 0
57 -58 108 166 0
57 -58 -108 -166 0
-57 58 108 166 0
-57 58 -108 -166 0
-57 -58 108 -166 0
-57 -58 -108 166 0
60 61 107 -168 0
60 61 -107 168 0
60 -61 107 168 0
60 -61 -107 -168 0
-60 61 107 168 0
-60 61 -107 -168 0
-60 -61 107 -168 0
-60 -61 -107 168 0
63 64 106 -170 0
63 64 -106 170 0
63 -64 106 170 0
63 -64 -106 -170 0
-63 64 106 170 0
-63 64 -106 -170 0
-63 -64 106 -170 0
-63 -64 -106 170 0
66 67 105 -172 0
66 67 -105 172 0
66 -67 105 172 0
66 -67 -105 -172 0
-66 67 105 172 0
-66 67 -105 -172 0
-66 -67 105 -172 0
-66 -67 -105 172 0
69 70 104 -174 0
69 70 -104 174 0
69 -70 104 174 0
69 -70 -104 -174 0
-69 70 104 174 0
-69 70 -104 -174 0
-69 -70 104 -174 0
-69 -70 -104 174 0
72 73 103 -176 0
72 73 -103 176 0
72 -73 103 176 0
72 -73 -103 -176 0
-72 73 103 176 0
-72 73 -103 -176 0
-72 -73 103 -176 0
-72 -73 -103 176 0
75 76 102 -178 0
75 76 -102 178 0
75 -76 102 178 0
75 -76 -102 -178 0
-75 76 102 178 0
-75 76 -102 -178 0
-75 -76 102 -178 0
-75 -76 -102 178 0
78 79 101 -180 0
78 79 -101 180 0
78 -79 101 180 0
78 -79 -101 -180 0
-78 79 101 180 0
-78 79 -101 -180 0
-78 -79 101 -180 0
-78 -79 -101 180 0
81 82 100 -182 0
81 82 -100 182 0
81 -82 100 182 0
81 -82 -100 -182 0
-81 82 100 182 0
-81 82 -100 -182 0
-81 -82 100 -182 0
-81 -82 -100 182 0
84 85 99 -184 0
84 85 -99 184 0
84 -85 99 184 0
84 -85 -99 -184 0
-84 85 99 184 0
-84 85 -99 -184 0
-84 -85 99 -184 0
-84 -85 -99 184 0
87 88 98 -186 0
87 88 -98 186 0
87 -88 98 186 0
87 -88 -98 -186 0
-87 88 98 186 0
-87 88 -98 -186 0
-87 -88 98 -186 0
-87 -88 -98 186 0
90 91 97 -188 0
90 91 -97 188 0
90 -91 97 188 0
90 -91 -97 -188 0
-90 91 97 188 0
-90 91 -97 -188 0
-90 -91 97 -188 0
-90 -91 -97 188 0
93 94 96 -190 0
93 94 -96 190 0
93 -94 96 190 0
93 -94 -96 -190 0
-93 94 96 190 0
-93 94 -96 -190 0
-93 -94 96 -190 0
-93 -94 -96 190 0
-96 -192 0
96 192 0
-191 -192 193 0
191 -193 0
192 -193 0
189 190 -194 0
189 193 -194 0
-190 -193 194 0
190 193 -194 0
-189 -193 194 0
-189 -190 194 0
187 188 -195 0
187 194 -195 0
-188 -194 195 0
188 194 -195 0
-187 -194 195 0
-187 -188 195 0
185 186 -196 0
185 195 -196 0
-186 -195 196 0
186 195 -196 0
-185 -195 196 0
-185 -186 196 0
183 184 -197 0
183 196 -197 0
-184 -196 197 0
184 196 -197 0
-183 -196 197 0
-183 -184 197 0
181 182 -198 0
181 197 -198 0
-182 -197 198 0
182 197 -198 0
-181 -197 198 0
-181 -182 198 0
179 180 -199 0
179 198 -199 0
-180 -198 199 0
180 198 -199 0
-179 -198 199 0
-179 -180 199 0
177 178 -200 0
177 199 -200 0
-178 -199 200 0
178 199 -200 0
-177 -199 200 0
-177 -178 200 0
175 176 -201 0
175 200 -201 0
-176 -200 201 0
176 200 -201 0
-175 -200 201 0
-175 -176 201 0
173 174 -202 0
173 201 -202 0
-174 -201 202 0
174 201 -202 0
-173 -201 202 0
-173 -174 202 0
171 172 -203 0
171 202 -203 0
-172 -202 203 0
172 202 -203 0
-171 -202 203 0
-171 -172 203 0
169 170 -204 0
169 203 -204 0
-170 -203 204 0
170 203 -204 0
-169 -203 204 0
-169 -170 204 0
167 168 -205 0
167 204 -205 0
-168 -204 205 0
168 204 -205 0
-167 -204 205 0
-167 -168 205 0
165 166 -206 0
165 205 -206 0
-166 -205 206 0
166 205 -206 0
-165 -205 206 0
-165 -166 206 0
163 164 -207 0
163 206 -207 0
-164 -206 207 0
164 206 -207 0
-163 -206 207 0
-163 -164 207 0
161 162 -208 0
161 207 -208 0
-162 -207 208 0
162 207 -208 0
-161 -207 208 0
-161 -162 208 0
159 160 -209 0
159 208 -209 0
-160 -208 209 0
160 208 -209 0
-159 -208 209 0
-159 -160 209 0
157 158 -210 0
157 209 -210 0
-158 -209 210 0
158 209 -210 0
-157 -209 210 0
-157 -158 210 0
155 156 -211 0
155 210 -211 0
-156 -210 211 0
156 210 -211 0
-155 -210 211 0
-155 -156 211 0
153 154 -212 0
153 211 -212 0
-154 -211 212 0
154 211 -212 0
-153 -211 212 0
-153 -154 212 0
151 152 -213 0
151 212 -213 0
-152 -212 213 0
152 212 -213 0
-151 -212 213 0
-151 -152 213 0
149 150 -214 0
149 213 -214 0
-150 -213 214 0
150 213 -214 0
-149 -213 214 0
-149 -150 214 0
147 148 -215 0
147 214 -215 0
-148 -214 215 0
148 214 -215 0
-147 -214 215 0
-147 -148 215 0
145 146 -216 0
145 215 -216 0
-146 -215 216 0
146 215 -216 0
-145 -215 216 0
-145 -146 216 0
143 144 -217 0
143 216 -217 0
-144 -216 217 0
144 216 -217 0
-143 -216 217 0
-143 -144 217 0
141 142 -218 0
141 217 -218 0
-142 -217 218 0
142 217 -218 0
-141 -217 218 0
-141 -142 218 0
139 140 -219 0
139 218 -219 0
-140 -218 219 0
140 218 -219 0
-139 -218 219 0
-139 -140 219 0
137 138 -220 0
137 219 -220 0
-138 -219 220 0
138 219 -220 0
-137 -219 220 0
-137 -138 220 0
135 136 -221 0
135 220 -221 0
-136 -220 221 0
136 220 -221 0
-135 -220 221 0
-135 -136 221 0
133 134 -222 0
133 221 -222 0
-134 -221 222 0
134 221 -222 0
-133 -221 222 0
-133 -134 222 0
131 132 -223 0
131 222 -223 0
-132 -222 223 0
132 222 -223 0
-131 -222 223 0
-131 -132 223 0
129 130 -224 0
129 223 -224 0
-130 -223 224 0
130 223 -224 0
-129 -223 224 0
-129 -130 224 0
1 128 224 -225 0
1 128 -224 225 0
1 -128 224 225 0
1 -128 -224 -225 0
-1 128 224 225 0
-1 128 -224 -225 0
-1 -128 224 -225 0
-1 -128 -224 225 0
225 0
